p cnf 310 871
r 0.5 1 2 3 4 5 6 7 8 9 10 0
e 11 12 13 14 15 16 17 18 19 20 21 22 23 24 25 26 27 28 29 30 31 32 33 34 35 36 37 38 39 40 41 42 43 44 45 46 47 48 49 50 51 52 53 54 55 56 57 58 59 60 61 62 63 64 65 66 67 68 69 70 71 72 73 74 75 76 77 78 79 80 81 82 83 84 85 86 87 88 89 90 91 92 93 94 95 96 97 98 99 100 101 102 103 104 105 106 107 108 109 110 111 112 113 114 115 116 117 118 119 120 121 122 123 124 125 126 127 128 129 130 131 132 133 134 135 136 137 138 139 140 141 142 143 144 145 146 147 148 149 150 151 152 153 154 155 156 157 158 159 160 161 162 163 164 165 166 167 168 169 170 171 172 173 174 175 176 177 178 179 180 181 182 183 184 185 186 187 188 189 190 191 192 193 194 195 196 197 198 199 200 201 202 203 204 205 206 207 208 209 210 211 212 213 214 215 216 217 218 219 220 221 222 223 224 225 226 227 228 229 230 231 232 233 234 235 236 237 238 239 240 241 242 243 244 245 246 247 248 249 250 251 252 253 254 255 256 257 258 259 260 261 262 263 264 265 266 267 268 269 270 271 272 273 274 275 276 277 278 279 280 281 282 283 284 285 286 287 288 289 290 291 292 293 294 295 296 297 298 299 300 301 302 303 304 305 306 307 308 309 310 0
-310 -11 1 0
-309 -12 2 0
-308 -13 3 0
-307 -14 4 0
-306 -15 5 0
-305 -16 6 0
-304 -17 7 0
-303 -18 8 0
-302 -19 9 0
-301 -20 10 0
-300 1 0
-300 -11 0
-299 11 0
-299 -1 0
-298 2 0
-298 -12 0
-297 12 0
-297 -2 0
-296 3 0
-296 -13 0
-295 13 0
-295 -3 0
-294 4 0
-294 -14 0
-293 14 0
-293 -4 0
-292 5 0
-292 -15 0
-291 15 0
-291 -5 0
-290 6 0
-290 -16 0
-289 16 0
-289 -6 0
-288 7 0
-288 -17 0
-287 17 0
-287 -7 0
-286 8 0
-286 -18 0
-285 18 0
-285 -8 0
-284 9 0
-284 -19 0
-283 19 0
-283 -9 0
-282 10 0
-282 -20 0
-281 20 0
-281 -10 0
-280 300 299 298 297 296 295 294 293 292 291 290 289 288 287 286 285 284 283 282 281 0
-279 8 0
-279 10 0
-279 7 0
-279 6 0
-279 -5 0
-278 3 0
-278 1 0
-278 7 0
-278 -5 0
-277 9 0
-277 10 0
-277 3 0
-277 -5 0
-276 6 0
-276 7 0
-276 9 0
-276 -5 0
-275 6 0
-275 2 0
-275 7 0
-275 3 0
-275 -5 0
-274 8 0
-274 3 0
-274 1 0
-274 -5 0
-273 10 0
-273 1 0
-273 2 0
-273 -5 0
-272 4 0
-272 10 0
-272 3 0
-272 -5 0
-271 4 0
-271 9 0
-271 7 0
-271 3 0
-271 -5 0
-270 3 0
-270 8 0
-270 9 0
-270 4 0
-270 -5 0
-269 7 0
-269 5 0
-269 8 0
-269 -1 0
-268 6 0
-268 7 0
-268 9 0
-268 5 0
-268 -1 0
-267 10 0
-267 3 0
-267 2 0
-267 -1 0
-266 6 0
-266 10 0
-266 8 0
-266 -1 0
-265 9 0
-265 8 0
-265 4 0
-265 10 0
-265 -1 0
-264 6 0
-264 8 0
-264 10 0
-264 2 0
-264 -1 0
-263 7 0
-263 4 0
-263 2 0
-263 -1 0
-262 7 0
-262 6 0
-262 10 0
-262 3 0
-262 -1 0
-261 10 0
-261 7 0
-261 8 0
-261 3 0
-261 -1 0
-260 3 0
-260 8 0
-260 4 0
-260 7 0
-260 -1 0
-259 6 0
-259 5 0
-259 1 0
-259 8 0
-259 -9 0
-258 4 0
-258 2 0
-258 -9 0
-257 8 0
-257 3 0
-257 5 0
-257 -9 0
-256 3 0
-256 2 0
-256 4 0
-256 -9 0
-255 10 0
-255 8 0
-255 4 0
-255 -9 0
-254 1 0
-254 5 0
-254 6 0
-254 -9 0
-253 3 0
-253 10 0
-253 7 0
-253 -9 0
-252 7 0
-252 3 0
-252 6 0
-252 1 0
-252 -9 0
-251 5 0
-251 3 0
-251 7 0
-251 4 0
-251 -9 0
-250 7 0
-250 6 0
-250 5 0
-250 2 0
-250 -9 0
-249 1 0
-249 6 0
-249 7 0
-249 -2 0
-248 6 0
-248 5 0
-248 9 0
-248 -2 0
-247 1 0
-247 8 0
-247 3 0
-247 -2 0
-246 10 0
-246 6 0
-246 1 0
-246 -2 0
-245 7 0
-245 10 0
-245 8 0
-245 6 0
-245 -2 0
-244 4 0
-244 1 0
-244 9 0
-244 8 0
-244 -2 0
-243 6 0
-243 4 0
-243 5 0
-243 -2 0
-242 7 0
-242 1 0
-242 3 0
-242 -2 0
-241 5 0
-241 1 0
-241 8 0
-241 7 0
-241 -2 0
-240 10 0
-240 6 0
-240 1 0
-240 9 0
-240 -2 0
-239 4 0
-239 1 0
-239 2 0
-239 -8 0
-238 9 0
-238 5 0
-238 7 0
-238 6 0
-238 -8 0
-237 9 0
-237 2 0
-237 1 0
-237 6 0
-237 -8 0
-236 4 0
-236 6 0
-236 1 0
-236 -8 0
-235 7 0
-235 10 0
-235 6 0
-235 1 0
-235 -8 0
-234 2 0
-234 1 0
-234 4 0
-234 10 0
-234 -8 0
-233 1 0
-233 9 0
-233 7 0
-233 -8 0
-232 1 0
-232 5 0
-232 7 0
-232 -8 0
-231 9 0
-231 6 0
-231 1 0
-231 4 0
-231 -8 0
-230 10 0
-230 1 0
-230 5 0
-230 -8 0
-229 5 0
-229 7 0
-229 2 0
-229 4 0
-229 -6 0
-228 8 0
-228 9 0
-228 4 0
-228 3 0
-228 -6 0
-227 2 0
-227 7 0
-227 10 0
-227 8 0
-227 -6 0
-226 5 0
-226 2 0
-226 3 0
-226 10 0
-226 -6 0
-225 5 0
-225 10 0
-225 2 0
-225 7 0
-225 -6 0
-224 1 0
-224 3 0
-224 4 0
-224 5 0
-224 -6 0
-223 3 0
-223 8 0
-223 2 0
-223 10 0
-223 -6 0
-222 7 0
-222 4 0
-222 1 0
-222 9 0
-222 -6 0
-221 2 0
-221 7 0
-221 8 0
-221 9 0
-221 -6 0
-220 7 0
-220 5 0
-220 10 0
-220 8 0
-220 -6 0
-219 1 0
-219 10 0
-219 6 0
-219 5 0
-219 -7 0
-218 6 0
-218 1 0
-218 2 0
-218 -7 0
-217 6 0
-217 5 0
-217 4 0
-217 -7 0
-216 5 0
-216 1 0
-216 10 0
-216 9 0
-216 -7 0
-215 3 0
-215 8 0
-215 10 0
-215 2 0
-215 -7 0
-214 9 0
-214 6 0
-214 10 0
-214 -7 0
-213 6 0
-213 5 0
-213 3 0
-213 4 0
-213 -7 0
-212 4 0
-212 5 0
-212 6 0
-212 9 0
-212 -7 0
-211 8 0
-211 4 0
-211 6 0
-211 1 0
-211 -7 0
-210 10 0
-210 4 0
-210 3 0
-210 -7 0
-209 7 0
-209 10 0
-209 5 0
-209 -4 0
-208 3 0
-208 7 0
-208 1 0
-208 -4 0
-207 10 0
-207 8 0
-207 3 0
-207 5 0
-207 -4 0
-206 5 0
-206 6 0
-206 7 0
-206 9 0
-206 -4 0
-205 2 0
-205 7 0
-205 10 0
-205 6 0
-205 -4 0
-204 1 0
-204 2 0
-204 10 0
-204 5 0
-204 -4 0
-203 5 0
-203 10 0
-203 1 0
-203 -4 0
-202 3 0
-202 6 0
-202 5 0
-202 -4 0
-201 7 0
-201 5 0
-201 3 0
-201 9 0
-201 -4 0
-200 10 0
-200 1 0
-200 8 0
-200 -4 0
-199 1 0
-199 8 0
-199 6 0
-199 5 0
-199 -3 0
-198 7 0
-198 6 0
-198 -3 0
-197 10 0
-197 4 0
-197 5 0
-197 -3 0
-196 5 0
-196 6 0
-196 2 0
-196 1 0
-196 -3 0
-195 2 0
-195 4 0
-195 -3 0
-194 6 0
-194 10 0
-194 2 0
-194 -3 0
-193 5 0
-193 1 0
-193 2 0
-193 7 0
-193 -3 0
-192 1 0
-192 5 0
-192 7 0
-192 -3 0
-191 7 0
-191 4 0
-191 1 0
-191 6 0
-191 -3 0
-190 3 0
-190 1 0
-190 5 0
-190 -10 0
-189 9 0
-189 1 0
-189 7 0
-189 -10 0
-188 4 0
-188 1 0
-188 8 0
-188 5 0
-188 -10 0
-187 5 0
-187 8 0
-187 2 0
-187 6 0
-187 -10 0
-186 6 0
-186 7 0
-186 9 0
-186 -10 0
-185 5 0
-185 6 0
-185 -10 0
-184 4 0
-184 3 0
-184 7 0
-184 -10 0
-183 4 0
-183 9 0
-183 3 0
-183 5 0
-183 -10 0
-182 8 0
-182 9 0
-182 4 0
-182 6 0
-182 -10 0
-181 3 0
-181 4 0
-181 2 0
-181 1 0
-181 -10 0
-180 -4 0
-180 -8 0
-180 -9 0
-179 -8 0
-179 -2 0
-179 -9 0
-178 -6 0
-178 -4 0
-178 -3 0
-177 -7 0
-177 -8 0
-177 -9 0
-177 -3 0
-176 -2 0
-176 -6 0
-176 -4 0
-175 -9 0
-175 -5 0
-175 -7 0
-174 -10 0
-174 -1 0
-174 -2 0
-174 -3 0
-173 -3 0
-173 -5 0
-173 -2 0
-173 -6 0
-172 -2 0
-172 -7 0
-172 -4 0
-172 -5 0
-171 -8 0
-171 -7 0
-171 -3 0
-171 -10 0
-170 -2 0
-170 -10 0
-170 -7 0
-170 -1 0
-169 -2 0
-169 -10 0
-169 -5 0
-169 -3 0
-168 -8 0
-168 -4 0
-168 -6 0
-168 -7 0
-167 -4 0
-167 -2 0
-167 -3 0
-167 -10 0
-166 -8 0
-166 -9 0
-166 -4 0
-166 -6 0
-165 -9 0
-165 -5 0
-165 -6 0
-164 -10 0
-164 -4 0
-164 -2 0
-163 -6 0
-163 -7 0
-163 -8 0
-163 -10 0
-162 -6 0
-162 -1 0
-162 -5 0
-161 -9 0
-161 -1 0
-161 -7 0
-160 -10 0
-160 -3 0
-160 -8 0
-159 -9 0
-159 -8 0
-159 -3 0
-159 -7 0
-158 -3 0
-158 -4 0
-158 -1 0
-158 -9 0
-157 -3 0
-157 -2 0
-157 -10 0
-156 -9 0
-156 -4 0
-156 -8 0
-156 -5 0
-155 -6 0
-155 -3 0
-155 -1 0
-155 -9 0
-154 -1 0
-154 -2 0
-154 -9 0
-154 -6 0
-153 -3 0
-153 -6 0
-153 -2 0
-153 -4 0
-152 -8 0
-152 -10 0
-152 -3 0
-152 -7 0
-151 -18 -20 -17 -16 15 0
-150 -13 -11 -17 15 0
-149 -19 -20 -13 15 0
-148 -16 -17 -19 15 0
-147 -16 -12 -17 -13 15 0
-146 -18 -13 -11 15 0
-145 -20 -11 -12 15 0
-144 -14 -20 -13 15 0
-143 -14 -19 -17 -13 15 0
-142 -13 -18 -19 -14 15 0
-141 -17 -15 -18 11 0
-140 -16 -17 -19 -15 11 0
-139 -20 -13 -12 11 0
-138 -16 -20 -18 11 0
-137 -19 -18 -14 -20 11 0
-136 -16 -18 -20 -12 11 0
-135 -17 -14 -12 11 0
-134 -17 -16 -20 -13 11 0
-133 -20 -17 -18 -13 11 0
-132 -13 -18 -14 -17 11 0
-131 -16 -15 -11 -18 19 0
-130 -14 -12 19 0
-129 -18 -13 -15 19 0
-128 -13 -12 -14 19 0
-127 -20 -18 -14 19 0
-126 -11 -15 -16 19 0
-125 -13 -20 -17 19 0
-124 -17 -13 -16 -11 19 0
-123 -15 -13 -17 -14 19 0
-122 -17 -16 -15 -12 19 0
-121 -11 -16 -17 12 0
-120 -16 -15 -19 12 0
-119 -11 -18 -13 12 0
-118 -20 -16 -11 12 0
-117 -17 -20 -18 -16 12 0
-116 -14 -11 -19 -18 12 0
-115 -16 -14 -15 12 0
-114 -17 -11 -13 12 0
-113 -15 -11 -18 -17 12 0
-112 -20 -16 -11 -19 12 0
-111 -14 -11 -12 18 0
-110 -19 -15 -17 -16 18 0
-109 -19 -12 -11 -16 18 0
-108 -14 -16 -11 18 0
-107 -17 -20 -16 -11 18 0
-106 -12 -11 -14 -20 18 0
-105 -11 -19 -17 18 0
-104 -11 -15 -17 18 0
-103 -19 -16 -11 -14 18 0
-102 -20 -11 -15 18 0
-101 -15 -17 -12 -14 16 0
-100 -18 -19 -14 -13 16 0
-99 -12 -17 -20 -18 16 0
-98 -15 -12 -13 -20 16 0
-97 -15 -20 -12 -17 16 0
-96 -11 -13 -14 -15 16 0
-95 -13 -18 -12 -20 16 0
-94 -17 -14 -11 -19 16 0
-93 -12 -17 -18 -19 16 0
-92 -17 -15 -20 -18 16 0
-91 -11 -20 -16 -15 17 0
-90 -16 -11 -12 17 0
-89 -16 -15 -14 17 0
-88 -15 -11 -20 -19 17 0
-87 -13 -18 -20 -12 17 0
-86 -19 -16 -20 17 0
-85 -16 -15 -13 -14 17 0
-84 -14 -15 -16 -19 17 0
-83 -18 -14 -16 -11 17 0
-82 -20 -14 -13 17 0
-81 -17 -20 -15 14 0
-80 -13 -17 -11 14 0
-79 -20 -18 -13 -15 14 0
-78 -15 -16 -17 -19 14 0
-77 -12 -17 -20 -16 14 0
-76 -11 -12 -20 -15 14 0
-75 -15 -20 -11 14 0
-74 -13 -16 -15 14 0
-73 -17 -15 -13 -19 14 0
-72 -20 -11 -18 14 0
-71 -11 -18 -16 -15 13 0
-70 -17 -16 13 0
-69 -20 -14 -15 13 0
-68 -15 -16 -12 -11 13 0
-67 -12 -14 13 0
-66 -16 -20 -12 13 0
-65 -15 -11 -12 -17 13 0
-64 -11 -15 -17 13 0
-63 -17 -14 -11 -16 13 0
-62 -13 -11 -15 20 0
-61 -19 -11 -17 20 0
-60 -14 -11 -18 -15 20 0
-59 -15 -18 -12 -16 20 0
-58 -16 -17 -19 20 0
-57 -15 -16 20 0
-56 -14 -13 -17 20 0
-55 -14 -19 -13 -15 20 0
-54 -18 -19 -14 -16 20 0
-53 -13 -14 -12 -11 20 0
-52 14 18 19 0
-51 18 12 19 0
-50 16 14 13 0
-49 17 18 19 13 0
-48 12 16 14 0
-47 19 15 17 0
-46 20 11 12 13 0
-45 13 15 12 16 0
-44 12 17 14 15 0
-43 18 17 13 20 0
-42 12 20 17 11 0
-41 12 20 15 13 0
-40 18 14 16 17 0
-39 14 12 13 20 0
-38 18 19 14 16 0
-37 19 15 16 0
-36 20 14 12 0
-35 16 17 18 20 0
-34 16 11 15 0
-33 19 11 17 0
-32 20 13 18 0
-31 19 18 13 17 0
-30 13 14 11 19 0
-29 13 12 20 0
-28 19 14 18 15 0
-27 16 13 11 19 0
-26 11 12 19 16 0
-25 13 16 12 14 0
-24 18 20 13 17 0
-23 151 0
-23 150 0
-23 149 0
-23 148 0
-23 147 0
-23 146 0
-23 145 0
-23 144 0
-23 143 0
-23 142 0
-23 141 0
-23 140 0
-23 139 0
-23 138 0
-23 137 0
-23 136 0
-23 135 0
-23 134 0
-23 133 0
-23 132 0
-23 131 0
-23 130 0
-23 129 0
-23 128 0
-23 127 0
-23 126 0
-23 125 0
-23 124 0
-23 123 0
-23 122 0
-23 121 0
-23 120 0
-23 119 0
-23 118 0
-23 117 0
-23 116 0
-23 115 0
-23 114 0
-23 113 0
-23 112 0
-23 111 0
-23 110 0
-23 109 0
-23 108 0
-23 107 0
-23 106 0
-23 105 0
-23 104 0
-23 103 0
-23 102 0
-23 101 0
-23 100 0
-23 99 0
-23 98 0
-23 97 0
-23 96 0
-23 95 0
-23 94 0
-23 93 0
-23 92 0
-23 91 0
-23 90 0
-23 89 0
-23 88 0
-23 87 0
-23 86 0
-23 85 0
-23 84 0
-23 83 0
-23 82 0
-23 81 0
-23 80 0
-23 79 0
-23 78 0
-23 77 0
-23 76 0
-23 75 0
-23 74 0
-23 73 0
-23 72 0
-23 71 0
-23 70 0
-23 69 0
-23 68 0
-23 67 0
-23 66 0
-23 65 0
-23 64 0
-23 63 0
-23 62 0
-23 61 0
-23 60 0
-23 59 0
-23 58 0
-23 57 0
-23 56 0
-23 55 0
-23 54 0
-23 53 0
-23 52 0
-23 51 0
-23 50 0
-23 49 0
-23 48 0
-23 47 0
-23 46 0
-23 45 0
-23 44 0
-23 43 0
-23 42 0
-23 41 0
-23 40 0
-23 39 0
-23 38 0
-23 37 0
-23 36 0
-23 35 0
-23 34 0
-23 33 0
-23 32 0
-23 31 0
-23 30 0
-23 29 0
-23 28 0
-23 27 0
-23 26 0
-23 25 0
-23 24 0
-22 279 278 277 276 275 274 273 272 271 270 269 268 267 266 265 264 263 262 261 260 259 258 257 256 255 254 253 252 251 250 249 248 247 246 245 244 243 242 241 240 239 238 237 236 235 234 233 232 231 230 229 228 227 226 225 224 223 222 221 220 219 218 217 216 215 214 213 212 211 210 209 208 207 206 205 204 203 202 201 200 199 198 197 196 195 194 193 192 191 190 189 188 187 186 185 184 183 182 181 180 179 178 177 176 175 174 173 172 171 170 169 168 167 166 165 164 163 162 161 160 159 158 157 156 155 154 153 152 23 0
-21 310 0
-21 309 0
-21 308 0
-21 307 0
-21 306 0
-21 305 0
-21 304 0
-21 303 0
-21 302 0
-21 301 0
-21 280 0
-21 22 0
21 -5 -1 0

